 c In Weigthed Partial Max-SAT, the parameters line is 'p wcnf nbvar nbclauses top'
 c Where p is the weight
 c nbvar is the nu	mber of a variables appearing in the file (TYPEBITS +1)
 c nbclauses is the exact number of clauses contained in the file
 c see http://maxsat.ia.udl.cat/requirements/
p wcnf 3384
8172.8209681215667 -3 -4 -1 -2 -5 -1 -2

8173.8209681215667 3 -4 -1 -2 -5 -1 -2

8174.8209681215667 -3 4 -1 -2 -5 -1 -2

8174.8209681215667 3 4 -1 -2 -5 -1 -2

8175.8209681215667 -3 -4 1 -2 -5 -1 -2

8175.8209681215667 3 -4 1 -2 -5 -1 -2

8175.8209681215667 -3 4 1 -2 -5 -1 -2

8175.8209681215667 3 4 1 -2 -5 -1 -2

8176.8209681215667 -3 -4 -1 2 -5 -1 -2

8176.8209681215667 3 -4 -1 2 -5 -1 -2

8176.8209681215667 -3 4 -1 2 -5 -1 -2

8176.8209681215667 3 4 -1 2 -5 -1 -2

8176.8209681215667 -3 -4 1 2 -5 -1 -2

8176.8209681215667 3 -4 1 2 -5 -1 -2

8176.8209681215667 -3 4 1 2 -5 -1 -2

8176.8209681215667 3 4 1 2 -5 -1 -2

8177.8209681215667 -3 -4 -1 -2 5 -1 -2

8177.8209681215667 3 -4 -1 -2 5 -1 -2

8177.8209681215667 -3 4 -1 -2 5 -1 -2

8177.8209681215667 3 4 -1 -2 5 -1 -2

8177.8209681215667 -3 -4 1 -2 5 -1 -2

8177.8209681215667 3 -4 1 -2 5 -1 -2

8177.8209681215667 -3 4 1 -2 5 -1 -2

8177.8209681215667 3 4 1 -2 5 -1 -2

8177.8209681215667 -3 -4 -1 2 5 -1 -2

8177.8209681215667 3 -4 -1 2 5 -1 -2

8177.8209681215667 -3 4 -1 2 5 -1 -2

8177.8209681215667 3 4 -1 2 5 -1 -2

8177.8209681215667 -3 -4 1 2 5 -1 -2

8177.8209681215667 3 -4 1 2 5 -1 -2

8177.8209681215667 -3 4 1 2 5 -1 -2

8177.8209681215667 3 4 1 2 5 -1 -2

8178.8209681215667 -3 -4 -1 -2 -5 1 -2

8178.8209681215667 3 -4 -1 -2 -5 1 -2

8178.8209681215667 -3 4 -1 -2 -5 1 -2

8178.8209681215667 3 4 -1 -2 -5 1 -2

8178.8209681215667 -3 -4 1 -2 -5 1 -2

8178.8209681215667 3 -4 1 -2 -5 1 -2

8178.8209681215667 -3 4 1 -2 -5 1 -2

8178.8209681215667 3 4 1 -2 -5 1 -2

8178.8209681215667 -3 -4 -1 2 -5 1 -2

8178.8209681215667 3 -4 -1 2 -5 1 -2

8178.8209681215667 -3 4 -1 2 -5 1 -2

8178.8209681215667 3 4 -1 2 -5 1 -2

8178.8209681215667 -3 -4 1 2 -5 1 -2

8178.8209681215667 3 -4 1 2 -5 1 -2

8178.8209681215667 -3 4 1 2 -5 1 -2

8178.8209681215667 3 4 1 2 -5 1 -2

8178.8209681215667 -3 -4 -1 -2 5 1 -2

8178.8209681215667 3 -4 -1 -2 5 1 -2

8178.8209681215667 -3 4 -1 -2 5 1 -2

8178.8209681215667 3 4 -1 -2 5 1 -2

8178.8209681215667 -3 -4 1 -2 5 1 -2

8178.8209681215667 3 -4 1 -2 5 1 -2

8178.8209681215667 -3 4 1 -2 5 1 -2

8178.8209681215667 3 4 1 -2 5 1 -2

8178.8209681215667 -3 -4 -1 2 5 1 -2

8178.8209681215667 3 -4 -1 2 5 1 -2

8178.8209681215667 -3 4 -1 2 5 1 -2

8178.8209681215667 3 4 -1 2 5 1 -2

8178.8209681215667 -3 -4 1 2 5 1 -2

8178.8209681215667 3 -4 1 2 5 1 -2

8178.8209681215667 -3 4 1 2 5 1 -2

8178.8209681215667 3 4 1 2 5 1 -2

8179.8209681215667 -3 -4 -1 -2 -5 -1 2

8179.8209681215667 3 -4 -1 -2 -5 -1 2

8179.8209681215667 -3 4 -1 -2 -5 -1 2

8179.8209681215667 3 4 -1 -2 -5 -1 2

8179.8209681215667 -3 -4 1 -2 -5 -1 2

8179.8209681215667 3 -4 1 -2 -5 -1 2

8179.8209681215667 -3 4 1 -2 -5 -1 2

8179.8209681215667 3 4 1 -2 -5 -1 2

8179.8209681215667 -3 -4 -1 2 -5 -1 2

8179.8209681215667 3 -4 -1 2 -5 -1 2

8179.8209681215667 -3 4 -1 2 -5 -1 2

8179.8209681215667 3 4 -1 2 -5 -1 2

8179.8209681215667 -3 -4 1 2 -5 -1 2

8179.8209681215667 3 -4 1 2 -5 -1 2

8179.8209681215667 -3 4 1 2 -5 -1 2

8179.8209681215667 3 4 1 2 -5 -1 2

8179.8209681215667 -3 -4 -1 -2 5 -1 2

8179.8209681215667 3 -4 -1 -2 5 -1 2

8179.8209681215667 -3 4 -1 -2 5 -1 2

8179.8209681215667 3 4 -1 -2 5 -1 2

8179.8209681215667 -3 -4 1 -2 5 -1 2

8179.8209681215667 3 -4 1 -2 5 -1 2

8179.8209681215667 -3 4 1 -2 5 -1 2

8179.8209681215667 3 4 1 -2 5 -1 2

8179.8209681215667 -3 -4 -1 2 5 -1 2

8179.8209681215667 3 -4 -1 2 5 -1 2

8179.8209681215667 -3 4 -1 2 5 -1 2

8179.8209681215667 3 4 -1 2 5 -1 2

8179.8209681215667 -3 -4 1 2 5 -1 2

8179.8209681215667 3 -4 1 2 5 -1 2

8179.8209681215667 -3 4 1 2 5 -1 2

8179.8209681215667 3 4 1 2 5 -1 2

8179.8209681215667 -3 -4 -1 -2 -5 1 2

8179.8209681215667 3 -4 -1 -2 -5 1 2

8179.8209681215667 -3 4 -1 -2 -5 1 2

8179.8209681215667 3 4 -1 -2 -5 1 2

8179.8209681215667 -3 -4 1 -2 -5 1 2

8179.8209681215667 3 -4 1 -2 -5 1 2

8179.8209681215667 -3 4 1 -2 -5 1 2

8179.8209681215667 3 4 1 -2 -5 1 2

8179.8209681215667 -3 -4 -1 2 -5 1 2

8179.8209681215667 3 -4 -1 2 -5 1 2

8179.8209681215667 -3 4 -1 2 -5 1 2

8179.8209681215667 3 4 -1 2 -5 1 2

8179.8209681215667 -3 -4 1 2 -5 1 2

8179.8209681215667 3 -4 1 2 -5 1 2

8179.8209681215667 -3 4 1 2 -5 1 2

8179.8209681215667 3 4 1 2 -5 1 2

8179.8209681215667 -3 -4 -1 -2 5 1 2

8179.8209681215667 3 -4 -1 -2 5 1 2

8179.8209681215667 -3 4 -1 -2 5 1 2

8179.8209681215667 3 4 -1 -2 5 1 2

8179.8209681215667 -3 -4 1 -2 5 1 2

8179.8209681215667 3 -4 1 -2 5 1 2

8179.8209681215667 -3 4 1 -2 5 1 2

8179.8209681215667 3 4 1 -2 5 1 2

8179.8209681215667 -3 -4 -1 2 5 1 2

8179.8209681215667 3 -4 -1 2 5 1 2

8179.8209681215667 -3 4 -1 2 5 1 2

8179.8209681215667 3 4 -1 2 5 1 2

8179.8209681215667 -3 -4 1 2 5 1 2

8179.8209681215667 3 -4 1 2 5 1 2

8179.8209681215667 -3 4 1 2 5 1 2

8179.8209681215667 3 4 1 2 5 1 2

8309.2722878733985 -6 -7 -1 -2 -8 -1 -2

8310.2722878733985 6 -7 -1 -2 -8 -1 -2

8311.2722878733985 -6 7 -1 -2 -8 -1 -2

8311.2722878733985 6 7 -1 -2 -8 -1 -2

8312.2722878733985 -6 -7 1 -2 -8 -1 -2

8312.2722878733985 6 -7 1 -2 -8 -1 -2

8312.2722878733985 -6 7 1 -2 -8 -1 -2

8312.2722878733985 6 7 1 -2 -8 -1 -2

8313.2722878733985 -6 -7 -1 2 -8 -1 -2

8313.2722878733985 6 -7 -1 2 -8 -1 -2

8313.2722878733985 -6 7 -1 2 -8 -1 -2

8313.2722878733985 6 7 -1 2 -8 -1 -2

8313.2722878733985 -6 -7 1 2 -8 -1 -2

8313.2722878733985 6 -7 1 2 -8 -1 -2

8313.2722878733985 -6 7 1 2 -8 -1 -2

8313.2722878733985 6 7 1 2 -8 -1 -2

8314.2722878733985 -6 -7 -1 -2 8 -1 -2

8314.2722878733985 6 -7 -1 -2 8 -1 -2

8314.2722878733985 -6 7 -1 -2 8 -1 -2

8314.2722878733985 6 7 -1 -2 8 -1 -2

8314.2722878733985 -6 -7 1 -2 8 -1 -2

8314.2722878733985 6 -7 1 -2 8 -1 -2

8314.2722878733985 -6 7 1 -2 8 -1 -2

8314.2722878733985 6 7 1 -2 8 -1 -2

8314.2722878733985 -6 -7 -1 2 8 -1 -2

8314.2722878733985 6 -7 -1 2 8 -1 -2

8314.2722878733985 -6 7 -1 2 8 -1 -2

8314.2722878733985 6 7 -1 2 8 -1 -2

8314.2722878733985 -6 -7 1 2 8 -1 -2

8314.2722878733985 6 -7 1 2 8 -1 -2

8314.2722878733985 -6 7 1 2 8 -1 -2

8314.2722878733985 6 7 1 2 8 -1 -2

8315.2722878733985 -6 -7 -1 -2 -8 1 -2

8315.2722878733985 6 -7 -1 -2 -8 1 -2

8315.2722878733985 -6 7 -1 -2 -8 1 -2

8315.2722878733985 6 7 -1 -2 -8 1 -2

8315.2722878733985 -6 -7 1 -2 -8 1 -2

8315.2722878733985 6 -7 1 -2 -8 1 -2

8315.2722878733985 -6 7 1 -2 -8 1 -2

8315.2722878733985 6 7 1 -2 -8 1 -2

8315.2722878733985 -6 -7 -1 2 -8 1 -2

8315.2722878733985 6 -7 -1 2 -8 1 -2

8315.2722878733985 -6 7 -1 2 -8 1 -2

8315.2722878733985 6 7 -1 2 -8 1 -2

8315.2722878733985 -6 -7 1 2 -8 1 -2

8315.2722878733985 6 -7 1 2 -8 1 -2

8315.2722878733985 -6 7 1 2 -8 1 -2

8315.2722878733985 6 7 1 2 -8 1 -2

8315.2722878733985 -6 -7 -1 -2 8 1 -2

8315.2722878733985 6 -7 -1 -2 8 1 -2

8315.2722878733985 -6 7 -1 -2 8 1 -2

8315.2722878733985 6 7 -1 -2 8 1 -2

8315.2722878733985 -6 -7 1 -2 8 1 -2

8315.2722878733985 6 -7 1 -2 8 1 -2

8315.2722878733985 -6 7 1 -2 8 1 -2

8315.2722878733985 6 7 1 -2 8 1 -2

8315.2722878733985 -6 -7 -1 2 8 1 -2

8315.2722878733985 6 -7 -1 2 8 1 -2

8315.2722878733985 -6 7 -1 2 8 1 -2

8315.2722878733985 6 7 -1 2 8 1 -2

8315.2722878733985 -6 -7 1 2 8 1 -2

8315.2722878733985 6 -7 1 2 8 1 -2

8315.2722878733985 -6 7 1 2 8 1 -2

8315.2722878733985 6 7 1 2 8 1 -2

8316.2722878733985 -6 -7 -1 -2 -8 -1 2

8316.2722878733985 6 -7 -1 -2 -8 -1 2

8316.2722878733985 -6 7 -1 -2 -8 -1 2

8316.2722878733985 6 7 -1 -2 -8 -1 2

8316.2722878733985 -6 -7 1 -2 -8 -1 2

8316.2722878733985 6 -7 1 -2 -8 -1 2

8316.2722878733985 -6 7 1 -2 -8 -1 2

8316.2722878733985 6 7 1 -2 -8 -1 2

8316.2722878733985 -6 -7 -1 2 -8 -1 2

8316.2722878733985 6 -7 -1 2 -8 -1 2

8316.2722878733985 -6 7 -1 2 -8 -1 2

8316.2722878733985 6 7 -1 2 -8 -1 2

8316.2722878733985 -6 -7 1 2 -8 -1 2

8316.2722878733985 6 -7 1 2 -8 -1 2

8316.2722878733985 -6 7 1 2 -8 -1 2

8316.2722878733985 6 7 1 2 -8 -1 2

8316.2722878733985 -6 -7 -1 -2 8 -1 2

8316.2722878733985 6 -7 -1 -2 8 -1 2

8316.2722878733985 -6 7 -1 -2 8 -1 2

8316.2722878733985 6 7 -1 -2 8 -1 2

8316.2722878733985 -6 -7 1 -2 8 -1 2

8316.2722878733985 6 -7 1 -2 8 -1 2

8316.2722878733985 -6 7 1 -2 8 -1 2

8316.2722878733985 6 7 1 -2 8 -1 2

8316.2722878733985 -6 -7 -1 2 8 -1 2

8316.2722878733985 6 -7 -1 2 8 -1 2

8316.2722878733985 -6 7 -1 2 8 -1 2

8316.2722878733985 6 7 -1 2 8 -1 2

8316.2722878733985 -6 -7 1 2 8 -1 2

8316.2722878733985 6 -7 1 2 8 -1 2

8316.2722878733985 -6 7 1 2 8 -1 2

8316.2722878733985 6 7 1 2 8 -1 2

8316.2722878733985 -6 -7 -1 -2 -8 1 2

8316.2722878733985 6 -7 -1 -2 -8 1 2

8316.2722878733985 -6 7 -1 -2 -8 1 2

8316.2722878733985 6 7 -1 -2 -8 1 2

8316.2722878733985 -6 -7 1 -2 -8 1 2

8316.2722878733985 6 -7 1 -2 -8 1 2

8316.2722878733985 -6 7 1 -2 -8 1 2

8316.2722878733985 6 7 1 -2 -8 1 2

8316.2722878733985 -6 -7 -1 2 -8 1 2

8316.2722878733985 6 -7 -1 2 -8 1 2

8316.2722878733985 -6 7 -1 2 -8 1 2

8316.2722878733985 6 7 -1 2 -8 1 2

8316.2722878733985 -6 -7 1 2 -8 1 2

8316.2722878733985 6 -7 1 2 -8 1 2

8316.2722878733985 -6 7 1 2 -8 1 2

8316.2722878733985 6 7 1 2 -8 1 2

8316.2722878733985 -6 -7 -1 -2 8 1 2

8316.2722878733985 6 -7 -1 -2 8 1 2

8316.2722878733985 -6 7 -1 -2 8 1 2

8316.2722878733985 6 7 -1 -2 8 1 2

8316.2722878733985 -6 -7 1 -2 8 1 2

8316.2722878733985 6 -7 1 -2 8 1 2

8316.2722878733985 -6 7 1 -2 8 1 2

8316.2722878733985 6 7 1 -2 8 1 2

8316.2722878733985 -6 -7 -1 2 8 1 2

8316.2722878733985 6 -7 -1 2 8 1 2

8316.2722878733985 -6 7 -1 2 8 1 2

8316.2722878733985 6 7 -1 2 8 1 2

8316.2722878733985 -6 -7 1 2 8 1 2

8316.2722878733985 6 -7 1 2 8 1 2

8316.2722878733985 -6 7 1 2 8 1 2

8316.2722878733985 6 7 1 2 8 1 2

9011.2531829226864 -10 -9 -1 -2 -11

9019.2531829226864 10 -9 -1 -2 -11

9027.2531829226864 -10 9 -1 -2 -11

9027.2531829226864 10 9 -1 -2 -11

9035.2531829226864 -10 -9 1 -2 -11

9035.2531829226864 10 -9 1 -2 -11

9035.2531829226864 -10 9 1 -2 -11

9035.2531829226864 10 9 1 -2 -11

9035.2531829226864 -10 -9 -1 2 -11

9035.2531829226864 10 -9 -1 2 -11

9035.2531829226864 -10 9 -1 2 -11

9035.2531829226864 10 9 -1 2 -11

9035.2531829226864 -10 -9 1 2 -11

9035.2531829226864 10 -9 1 2 -11

9035.2531829226864 -10 9 1 2 -11

9035.2531829226864 10 9 1 2 -11

9035.2531829226864 -10 -9 -1 -2 11

9035.2531829226864 10 -9 -1 -2 11

9035.2531829226864 -10 9 -1 -2 11

9035.2531829226864 10 9 -1 -2 11

9035.2531829226864 -10 -9 1 -2 11

9035.2531829226864 10 -9 1 -2 11

9035.2531829226864 -10 9 1 -2 11

9035.2531829226864 10 9 1 -2 11

9035.2531829226864 -10 -9 -1 2 11

9035.2531829226864 10 -9 -1 2 11

9035.2531829226864 -10 9 -1 2 11

9035.2531829226864 10 9 -1 2 11

9035.2531829226864 -10 -9 1 2 11

9035.2531829226864 10 -9 1 2 11

9035.2531829226864 -10 9 1 2 11

9035.2531829226864 10 9 1 2 11

9035.2531829226864 -10 -9 -1 -2 -11

9035.2531829226864 10 -9 -1 -2 -11

9035.2531829226864 -10 9 -1 -2 -11

9035.2531829226864 10 9 -1 -2 -11

9035.2531829226864 -10 -9 1 -2 -11

9035.2531829226864 10 -9 1 -2 -11

9035.2531829226864 -10 9 1 -2 -11

9035.2531829226864 10 9 1 -2 -11

9035.2531829226864 -10 -9 -1 2 -11

9035.2531829226864 10 -9 -1 2 -11

9035.2531829226864 -10 9 -1 2 -11

9035.2531829226864 10 9 -1 2 -11

9035.2531829226864 -10 -9 1 2 -11

9035.2531829226864 10 -9 1 2 -11

9035.2531829226864 -10 9 1 2 -11

9035.2531829226864 10 9 1 2 -11

9035.2531829226864 -10 -9 -1 -2 11

9035.2531829226864 10 -9 -1 -2 11

9035.2531829226864 -10 9 -1 -2 11

9035.2531829226864 10 9 -1 -2 11

9035.2531829226864 -10 -9 1 -2 11

9035.2531829226864 10 -9 1 -2 11

9035.2531829226864 -10 9 1 -2 11

9035.2531829226864 10 9 1 -2 11

9035.2531829226864 -10 -9 -1 2 11

9035.2531829226864 10 -9 -1 2 11

9035.2531829226864 -10 9 -1 2 11

9035.2531829226864 10 9 -1 2 11

9035.2531829226864 -10 -9 1 2 11

9035.2531829226864 10 -9 1 2 11

9035.2531829226864 -10 9 1 2 11

9035.2531829226864 10 9 1 2 11

9043.2531829226864 -10 -9 -1 -2 -11

9043.2531829226864 10 -9 -1 -2 -11

9043.2531829226864 -10 9 -1 -2 -11

9043.2531829226864 10 9 -1 -2 -11

9043.2531829226864 -10 -9 1 -2 -11

9043.2531829226864 10 -9 1 -2 -11

9043.2531829226864 -10 9 1 -2 -11

9043.2531829226864 10 9 1 -2 -11

9043.2531829226864 -10 -9 -1 2 -11

9043.2531829226864 10 -9 -1 2 -11

9043.2531829226864 -10 9 -1 2 -11

9043.2531829226864 10 9 -1 2 -11

9043.2531829226864 -10 -9 1 2 -11

9043.2531829226864 10 -9 1 2 -11

9043.2531829226864 -10 9 1 2 -11

9043.2531829226864 10 9 1 2 -11

9043.2531829226864 -10 -9 -1 -2 11

9043.2531829226864 10 -9 -1 -2 11

9043.2531829226864 -10 9 -1 -2 11

9043.2531829226864 10 9 -1 -2 11

9043.2531829226864 -10 -9 1 -2 11

9043.2531829226864 10 -9 1 -2 11

9043.2531829226864 -10 9 1 -2 11

9043.2531829226864 10 9 1 -2 11

9043.2531829226864 -10 -9 -1 2 11

9043.2531829226864 10 -9 -1 2 11

9043.2531829226864 -10 9 -1 2 11

9043.2531829226864 10 9 -1 2 11

9043.2531829226864 -10 -9 1 2 11

9043.2531829226864 10 -9 1 2 11

9043.2531829226864 -10 9 1 2 11

9043.2531829226864 10 9 1 2 11

9043.2531829226864 -10 -9 -1 -2 -11

9043.2531829226864 10 -9 -1 -2 -11

9043.2531829226864 -10 9 -1 -2 -11

9043.2531829226864 10 9 -1 -2 -11

9043.2531829226864 -10 -9 1 -2 -11

9043.2531829226864 10 -9 1 -2 -11

9043.2531829226864 -10 9 1 -2 -11

9043.2531829226864 10 9 1 -2 -11

9043.2531829226864 -10 -9 -1 2 -11

9043.2531829226864 10 -9 -1 2 -11

9043.2531829226864 -10 9 -1 2 -11

9043.2531829226864 10 9 -1 2 -11

9043.2531829226864 -10 -9 1 2 -11

9043.2531829226864 10 -9 1 2 -11

9043.2531829226864 -10 9 1 2 -11

9043.2531829226864 10 9 1 2 -11

9043.2531829226864 -10 -9 -1 -2 11

9043.2531829226864 10 -9 -1 -2 11

9043.2531829226864 -10 9 -1 -2 11

9043.2531829226864 10 9 -1 -2 11

9043.2531829226864 -10 -9 1 -2 11

9043.2531829226864 10 -9 1 -2 11

9043.2531829226864 -10 9 1 -2 11

9043.2531829226864 10 9 1 -2 11

9043.2531829226864 -10 -9 -1 2 11

9043.2531829226864 10 -9 -1 2 11

9043.2531829226864 -10 9 -1 2 11

9043.2531829226864 10 9 -1 2 11

9043.2531829226864 -10 -9 1 2 11

9043.2531829226864 10 -9 1 2 11

9043.2531829226864 -10 9 1 2 11

9043.2531829226864 10 9 1 2 11

